50 3
1725
3450
345
1380
690
345
345
2415
2415
2070
3450
690
1380
3105
345
1380
2070
2760
1035
3450
2415
690
3105
2070
2415
1725
2070
3450
2415
345
1380
1035
1725
3105
1035
690
3450
2760
3450
3105
2760
1725
2070
1380
1035
2415
345
2760
1725
2760
13993
35011
47251
